multiobj/solutions/reallike/Ter-rl-5-2-0.80-1.0-3.out
5 2
1 0 3 4 2 
6031178 8968174 
4 0 2 1 3 
6946068 8812372 
0 1 3 4 2 
7360530 7999194 
4 3 2 1 0 
7480286 7922894 
1 2 3 4 0 
7606772 6398526 
